GLPSOL--GLPK LP/MIP Solver 5.0
Parameter(s) specified in the command line:
 --lp ../modeles/5_224.lp --log 5_224.log
Reading problem data from '../modeles/5_224.lp'...
1141 rows, 2250 columns, 7855 non-zeros
1120 integer variables, all of which are binary
3402 lines were read
GLPK Integer Optimizer 5.0
1141 rows, 2250 columns, 7855 non-zeros
1120 integer variables, all of which are binary
Preprocessing...
1110 constraint coefficient(s) were reduced
1141 rows, 2245 columns, 7850 non-zeros
1120 integer variables, all of which are binary
Scaling...
 A: min|aij| =  3.189e-04  max|aij| =  4.000e+00  ratio =  1.254e+04
GM: min|aij| =  9.449e-02  max|aij| =  1.058e+01  ratio =  1.120e+02
EQ: min|aij| =  8.929e-03  max|aij| =  1.000e+00  ratio =  1.120e+02
2N: min|aij| =  5.102e-03  max|aij| =  1.696e+00  ratio =  3.324e+02
Constructing initial basis...
Size of triangular part is 1141
Solving LP relaxation...
GLPK Simplex Optimizer 5.0
1141 rows, 2245 columns, 7850 non-zeros
      0: obj =   1.000000000e+01 inf =   1.435e+02 (11)
     94: obj =   3.708487820e-01 inf =   0.000e+00 (0)
*   258: obj =  -2.235994398e+00 inf =   2.097e-15 (0)
OPTIMAL LP SOLUTION FOUND
Integer optimization begins...
Long-step dual simplex will be used
+   258: mip =     not found yet >=              -inf        (1; 0)
+   261: >>>>>  -2.235994398e+00 >=  -2.235994398e+00   0.0% (4; 0)
+   261: mip =  -2.235994398e+00 >=     tree is empty   0.0% (0; 7)
INTEGER OPTIMAL SOLUTION FOUND
Time used:   0.0 secs
Memory used: 3.3 Mb (3458357 bytes)
